\Problem name: 

Minimize
OBJROW: - x_1_1_1 - x_1_1_2 - x_1_1_3 - x_1_2_1 - x_1_2_2 - x_1_2_3 - x_1_3_1 - x_1_3_2 - x_1_3_3 - x_1_4_1
 - x_1_4_2 - x_1_4_3 - x_1_5_1 - x_1_5_2 - x_1_5_3 - x_2_1_1 - x_2_1_2 - x_2_1_3 - x_2_2_1 - x_2_2_2
 - x_2_2_3 - x_2_3_1 - x_2_3_2 - x_2_3_3 - x_2_4_1 - x_2_4_2 - x_2_4_3 - x_2_5_1 - x_2_5_2 - x_2_5_3
 - x_3_1_1 - x_3_1_2 - x_3_1_3 - x_3_2_1 - x_3_2_2 - x_3_2_3 - x_3_3_1 - x_3_3_2 - x_3_3_3 - x_3_4_1
 - x_3_4_2 - x_3_4_3 - x_3_5_1 - x_3_5_2 - x_3_5_3 - x_4_1_1 - x_4_1_2 - x_4_1_3 - x_4_2_1 - x_4_2_2
 - x_4_2_3 - x_4_3_1 - x_4_3_2 - x_4_3_3 - x_4_4_1 - x_4_4_2 - x_4_4_3 - x_4_5_1 - x_4_5_2 - x_4_5_3
 - x_5_1_1 - x_5_1_2 - x_5_1_3 - x_5_2_1 - x_5_2_2 - x_5_2_3 - x_5_3_1 - x_5_3_2 - x_5_3_3 - x_5_4_1
 - x_5_4_2 - x_5_4_3 - x_5_5_1 - x_5_5_2 - x_5_5_3 - x_6_1_1 - x_6_1_2 - x_6_1_3 - x_6_2_1 - x_6_2_2
 - x_6_2_3 - x_6_3_1 - x_6_3_2 - x_6_3_3 - x_6_4_1 - x_6_4_2 - x_6_4_3 - x_6_5_1 - x_6_5_2 - x_6_5_3
 - x_7_1_1 - x_7_1_2 - x_7_1_3 - x_7_2_1 - x_7_2_2 - x_7_2_3 - x_7_3_1 - x_7_3_2 - x_7_3_3 - x_7_4_1
 - x_7_4_2 - x_7_4_3 - x_7_5_1 - x_7_5_2 - x_7_5_3
Subject To
c1_0_0_1:  x_0_0_1 = 0
c1_0_0_2:  x_0_0_2 = 0
c1_0_0_3:  x_0_0_3 = 0
c1_0_1_1:  x_0_1_1 = 0
c1_0_1_2:  x_0_1_2 = 0
c1_0_1_3:  x_0_1_3 = 0
c1_0_2_1:  x_0_2_1 = 0
c1_0_2_2:  x_0_2_2 = 0
c1_0_2_3:  x_0_2_3 = 0
c1_0_3_1:  x_0_3_1 = 0
c1_0_3_2:  x_0_3_2 = 0
c1_0_3_3:  x_0_3_3 = 0
c1_0_4_1:  x_0_4_1 = 0
c1_0_4_2:  x_0_4_2 = 0
c1_0_4_3:  x_0_4_3 = 0
c1_0_5_1:  x_0_5_1 = 0
c1_0_5_2:  x_0_5_2 = 0
c1_0_5_3:  x_0_5_3 = 0
c1_0_6_1:  x_0_6_1 = 0
c1_0_6_2:  x_0_6_2 = 0
c1_0_6_3:  x_0_6_3 = 0
c1_1_0_1:  x_1_0_1 = 0
c1_1_0_2:  x_1_0_2 = 0
c1_1_0_3:  x_1_0_3 = 0
c2_1_1_1:  - x_0_1_1 - x_1_0_1 + d_1_1_1 - x_1_2_1 - x_2_1_1 = -0
c2_1_1_2:  - x_0_1_2 - x_1_0_2 + d_1_1_2 - x_1_2_2 - x_2_1_2 = -0
c2_1_1_3:  - x_0_1_3 - x_1_0_3 + d_1_1_3 - x_1_2_3 - x_2_1_3 = -0
c3_1_1_3:  x_1_1_1 + x_1_1_2 + x_1_1_3 <= 1
c4_1_1_1:  x_1_1_1 = 1
c5_1_1_1:  d_1_1_1 = 1
c2_1_2_1:  - x_0_2_1 - x_1_1_1 + d_1_2_1 - x_1_3_1 - x_2_2_1 = -0
c2_1_2_2:  - x_0_2_2 - x_1_1_2 + d_1_2_2 - x_1_3_2 - x_2_2_2 = -0
c2_1_2_3:  - x_0_2_3 - x_1_1_3 + d_1_2_3 - x_1_3_3 - x_2_2_3 = -0
c3_1_2_3:  x_1_2_1 + x_1_2_2 + x_1_2_3 <= 1
c6#1_1_2_1:  2 x_1_2_1 - d_1_2_1 <= -0
c6#2_1_2_1:  2 x_1_2_1 + d_1_2_1 <= 4
c6#1_1_2_2:  2 x_1_2_2 - d_1_2_2 <= -0
c6#2_1_2_2:  2 x_1_2_2 + d_1_2_2 <= 4
c6#1_1_2_3:  2 x_1_2_3 - d_1_2_3 <= -0
c6#2_1_2_3:  2 x_1_2_3 + d_1_2_3 <= 4
c2_1_3_1:  - x_0_3_1 - x_1_2_1 + d_1_3_1 - x_1_4_1 - x_2_3_1 = -0
c2_1_3_2:  - x_0_3_2 - x_1_2_2 + d_1_3_2 - x_1_4_2 - x_2_3_2 = -0
c2_1_3_3:  - x_0_3_3 - x_1_2_3 + d_1_3_3 - x_1_4_3 - x_2_3_3 = -0
c3_1_3_3:  x_1_3_1 + x_1_3_2 + x_1_3_3 <= 1
c6#1_1_3_1:  2 x_1_3_1 - d_1_3_1 <= -0
c6#2_1_3_1:  2 x_1_3_1 + d_1_3_1 <= 4
c6#1_1_3_2:  2 x_1_3_2 - d_1_3_2 <= -0
c6#2_1_3_2:  2 x_1_3_2 + d_1_3_2 <= 4
c6#1_1_3_3:  2 x_1_3_3 - d_1_3_3 <= -0
c6#2_1_3_3:  2 x_1_3_3 + d_1_3_3 <= 4
c2_1_4_1:  - x_0_4_1 - x_1_3_1 + d_1_4_1 - x_1_5_1 - x_2_4_1 = -0
c2_1_4_2:  - x_0_4_2 - x_1_3_2 + d_1_4_2 - x_1_5_2 - x_2_4_2 = -0
c2_1_4_3:  - x_0_4_3 - x_1_3_3 + d_1_4_3 - x_1_5_3 - x_2_4_3 = -0
c3_1_4_3:  x_1_4_1 + x_1_4_2 + x_1_4_3 <= 1
c6#1_1_4_1:  2 x_1_4_1 - d_1_4_1 <= -0
c6#2_1_4_1:  2 x_1_4_1 + d_1_4_1 <= 4
c6#1_1_4_2:  2 x_1_4_2 - d_1_4_2 <= -0
c6#2_1_4_2:  2 x_1_4_2 + d_1_4_2 <= 4
c6#1_1_4_3:  2 x_1_4_3 - d_1_4_3 <= -0
c6#2_1_4_3:  2 x_1_4_3 + d_1_4_3 <= 4
c2_1_5_1:  - x_0_5_1 - x_1_4_1 + d_1_5_1 - x_1_6_1 - x_2_5_1 = -0
c2_1_5_2:  - x_0_5_2 - x_1_4_2 + d_1_5_2 - x_1_6_2 - x_2_5_2 = -0
c2_1_5_3:  - x_0_5_3 - x_1_4_3 + d_1_5_3 - x_1_6_3 - x_2_5_3 = -0
c3_1_5_3:  x_1_5_1 + x_1_5_2 + x_1_5_3 <= 1
c6#1_1_5_1:  2 x_1_5_1 - d_1_5_1 <= -0
c6#2_1_5_1:  2 x_1_5_1 + d_1_5_1 <= 4
c6#1_1_5_2:  2 x_1_5_2 - d_1_5_2 <= -0
c6#2_1_5_2:  2 x_1_5_2 + d_1_5_2 <= 4
c6#1_1_5_3:  2 x_1_5_3 - d_1_5_3 <= -0
c6#2_1_5_3:  2 x_1_5_3 + d_1_5_3 <= 4
c1_1_6_1:  x_1_6_1 = 0
c1_1_6_2:  x_1_6_2 = 0
c1_1_6_3:  x_1_6_3 = 0
c1_2_0_1:  x_2_0_1 = 0
c1_2_0_2:  x_2_0_2 = 0
c1_2_0_3:  x_2_0_3 = 0
c2_2_1_1:  - x_1_1_1 - x_2_0_1 + d_2_1_1 - x_2_2_1 - x_3_1_1 = -0
c2_2_1_2:  - x_1_1_2 - x_2_0_2 + d_2_1_2 - x_2_2_2 - x_3_1_2 = -0
c2_2_1_3:  - x_1_1_3 - x_2_0_3 + d_2_1_3 - x_2_2_3 - x_3_1_3 = -0
c3_2_1_3:  x_2_1_1 + x_2_1_2 + x_2_1_3 <= 1
c4_2_1_2:  x_2_1_2 = 1
c5_2_1_2:  d_2_1_2 = 1
c2_2_2_1:  - x_1_2_1 - x_2_1_1 + d_2_2_1 - x_2_3_1 - x_3_2_1 = -0
c2_2_2_2:  - x_1_2_2 - x_2_1_2 + d_2_2_2 - x_2_3_2 - x_3_2_2 = -0
c2_2_2_3:  - x_1_2_3 - x_2_1_3 + d_2_2_3 - x_2_3_3 - x_3_2_3 = -0
c3_2_2_3:  x_2_2_1 + x_2_2_2 + x_2_2_3 <= 1
c6#1_2_2_1:  2 x_2_2_1 - d_2_2_1 <= -0
c6#2_2_2_1:  2 x_2_2_1 + d_2_2_1 <= 4
c6#1_2_2_2:  2 x_2_2_2 - d_2_2_2 <= -0
c6#2_2_2_2:  2 x_2_2_2 + d_2_2_2 <= 4
c6#1_2_2_3:  2 x_2_2_3 - d_2_2_3 <= -0
c6#2_2_2_3:  2 x_2_2_3 + d_2_2_3 <= 4
c2_2_3_1:  - x_1_3_1 - x_2_2_1 + d_2_3_1 - x_2_4_1 - x_3_3_1 = -0
c2_2_3_2:  - x_1_3_2 - x_2_2_2 + d_2_3_2 - x_2_4_2 - x_3_3_2 = -0
c2_2_3_3:  - x_1_3_3 - x_2_2_3 + d_2_3_3 - x_2_4_3 - x_3_3_3 = -0
c3_2_3_3:  x_2_3_1 + x_2_3_2 + x_2_3_3 <= 1
c6#1_2_3_1:  2 x_2_3_1 - d_2_3_1 <= -0
c6#2_2_3_1:  2 x_2_3_1 + d_2_3_1 <= 4
c6#1_2_3_2:  2 x_2_3_2 - d_2_3_2 <= -0
c6#2_2_3_2:  2 x_2_3_2 + d_2_3_2 <= 4
c6#1_2_3_3:  2 x_2_3_3 - d_2_3_3 <= -0
c6#2_2_3_3:  2 x_2_3_3 + d_2_3_3 <= 4
c2_2_4_1:  - x_1_4_1 - x_2_3_1 + d_2_4_1 - x_2_5_1 - x_3_4_1 = -0
c2_2_4_2:  - x_1_4_2 - x_2_3_2 + d_2_4_2 - x_2_5_2 - x_3_4_2 = -0
c2_2_4_3:  - x_1_4_3 - x_2_3_3 + d_2_4_3 - x_2_5_3 - x_3_4_3 = -0
c3_2_4_3:  x_2_4_1 + x_2_4_2 + x_2_4_3 <= 1
c6#1_2_4_1:  2 x_2_4_1 - d_2_4_1 <= -0
c6#2_2_4_1:  2 x_2_4_1 + d_2_4_1 <= 4
c6#1_2_4_2:  2 x_2_4_2 - d_2_4_2 <= -0
c6#2_2_4_2:  2 x_2_4_2 + d_2_4_2 <= 4
c6#1_2_4_3:  2 x_2_4_3 - d_2_4_3 <= -0
c6#2_2_4_3:  2 x_2_4_3 + d_2_4_3 <= 4
c2_2_5_1:  - x_1_5_1 - x_2_4_1 + d_2_5_1 - x_2_6_1 - x_3_5_1 = -0
c2_2_5_2:  - x_1_5_2 - x_2_4_2 + d_2_5_2 - x_2_6_2 - x_3_5_2 = -0
c2_2_5_3:  - x_1_5_3 - x_2_4_3 + d_2_5_3 - x_2_6_3 - x_3_5_3 = -0
c3_2_5_3:  x_2_5_1 + x_2_5_2 + x_2_5_3 <= 1
c6#1_2_5_1:  2 x_2_5_1 - d_2_5_1 <= -0
c6#2_2_5_1:  2 x_2_5_1 + d_2_5_1 <= 4
c6#1_2_5_2:  2 x_2_5_2 - d_2_5_2 <= -0
c6#2_2_5_2:  2 x_2_5_2 + d_2_5_2 <= 4
c6#1_2_5_3:  2 x_2_5_3 - d_2_5_3 <= -0
c6#2_2_5_3:  2 x_2_5_3 + d_2_5_3 <= 4
c1_2_6_1:  x_2_6_1 = 0
c1_2_6_2:  x_2_6_2 = 0
c1_2_6_3:  x_2_6_3 = 0
c1_3_0_1:  x_3_0_1 = 0
c1_3_0_2:  x_3_0_2 = 0
c1_3_0_3:  x_3_0_3 = 0
c2_3_1_1:  - x_2_1_1 - x_3_0_1 + d_3_1_1 - x_3_2_1 - x_4_1_1 = -0
c2_3_1_2:  - x_2_1_2 - x_3_0_2 + d_3_1_2 - x_3_2_2 - x_4_1_2 = -0
c2_3_1_3:  - x_2_1_3 - x_3_0_3 + d_3_1_3 - x_3_2_3 - x_4_1_3 = -0
c3_3_1_3:  x_3_1_1 + x_3_1_2 + x_3_1_3 <= 1
c6#1_3_1_1:  2 x_3_1_1 - d_3_1_1 <= -0
c6#2_3_1_1:  2 x_3_1_1 + d_3_1_1 <= 4
c6#1_3_1_2:  2 x_3_1_2 - d_3_1_2 <= -0
c6#2_3_1_2:  2 x_3_1_2 + d_3_1_2 <= 4
c6#1_3_1_3:  2 x_3_1_3 - d_3_1_3 <= -0
c6#2_3_1_3:  2 x_3_1_3 + d_3_1_3 <= 4
c2_3_2_1:  - x_2_2_1 - x_3_1_1 + d_3_2_1 - x_3_3_1 - x_4_2_1 = -0
c2_3_2_2:  - x_2_2_2 - x_3_1_2 + d_3_2_2 - x_3_3_2 - x_4_2_2 = -0
c2_3_2_3:  - x_2_2_3 - x_3_1_3 + d_3_2_3 - x_3_3_3 - x_4_2_3 = -0
c3_3_2_3:  x_3_2_1 + x_3_2_2 + x_3_2_3 <= 1
c6#1_3_2_1:  2 x_3_2_1 - d_3_2_1 <= -0
c6#2_3_2_1:  2 x_3_2_1 + d_3_2_1 <= 4
c6#1_3_2_2:  2 x_3_2_2 - d_3_2_2 <= -0
c6#2_3_2_2:  2 x_3_2_2 + d_3_2_2 <= 4
c6#1_3_2_3:  2 x_3_2_3 - d_3_2_3 <= -0
c6#2_3_2_3:  2 x_3_2_3 + d_3_2_3 <= 4
c2_3_3_1:  - x_2_3_1 - x_3_2_1 + d_3_3_1 - x_3_4_1 - x_4_3_1 = -0
c2_3_3_2:  - x_2_3_2 - x_3_2_2 + d_3_3_2 - x_3_4_2 - x_4_3_2 = -0
c2_3_3_3:  - x_2_3_3 - x_3_2_3 + d_3_3_3 - x_3_4_3 - x_4_3_3 = -0
c3_3_3_3:  x_3_3_1 + x_3_3_2 + x_3_3_3 <= 1
c4_3_3_3:  x_3_3_3 = 1
c5_3_3_3:  d_3_3_3 = 1
c2_3_4_1:  - x_2_4_1 - x_3_3_1 + d_3_4_1 - x_3_5_1 - x_4_4_1 = -0
c2_3_4_2:  - x_2_4_2 - x_3_3_2 + d_3_4_2 - x_3_5_2 - x_4_4_2 = -0
c2_3_4_3:  - x_2_4_3 - x_3_3_3 + d_3_4_3 - x_3_5_3 - x_4_4_3 = -0
c3_3_4_3:  x_3_4_1 + x_3_4_2 + x_3_4_3 <= 1
c6#1_3_4_1:  2 x_3_4_1 - d_3_4_1 <= -0
c6#2_3_4_1:  2 x_3_4_1 + d_3_4_1 <= 4
c6#1_3_4_2:  2 x_3_4_2 - d_3_4_2 <= -0
c6#2_3_4_2:  2 x_3_4_2 + d_3_4_2 <= 4
c6#1_3_4_3:  2 x_3_4_3 - d_3_4_3 <= -0
c6#2_3_4_3:  2 x_3_4_3 + d_3_4_3 <= 4
c2_3_5_1:  - x_2_5_1 - x_3_4_1 + d_3_5_1 - x_3_6_1 - x_4_5_1 = -0
c2_3_5_2:  - x_2_5_2 - x_3_4_2 + d_3_5_2 - x_3_6_2 - x_4_5_2 = -0
c2_3_5_3:  - x_2_5_3 - x_3_4_3 + d_3_5_3 - x_3_6_3 - x_4_5_3 = -0
c3_3_5_3:  x_3_5_1 + x_3_5_2 + x_3_5_3 <= 1
c6#1_3_5_1:  2 x_3_5_1 - d_3_5_1 <= -0
c6#2_3_5_1:  2 x_3_5_1 + d_3_5_1 <= 4
c6#1_3_5_2:  2 x_3_5_2 - d_3_5_2 <= -0
c6#2_3_5_2:  2 x_3_5_2 + d_3_5_2 <= 4
c6#1_3_5_3:  2 x_3_5_3 - d_3_5_3 <= -0
c6#2_3_5_3:  2 x_3_5_3 + d_3_5_3 <= 4
c1_3_6_1:  x_3_6_1 = 0
c1_3_6_2:  x_3_6_2 = 0
c1_3_6_3:  x_3_6_3 = 0
c1_4_0_1:  x_4_0_1 = 0
c1_4_0_2:  x_4_0_2 = 0
c1_4_0_3:  x_4_0_3 = 0
c2_4_1_1:  - x_3_1_1 - x_4_0_1 + d_4_1_1 - x_4_2_1 - x_5_1_1 = -0
c2_4_1_2:  - x_3_1_2 - x_4_0_2 + d_4_1_2 - x_4_2_2 - x_5_1_2 = -0
c2_4_1_3:  - x_3_1_3 - x_4_0_3 + d_4_1_3 - x_4_2_3 - x_5_1_3 = -0
c3_4_1_3:  x_4_1_1 + x_4_1_2 + x_4_1_3 <= 1
c6#1_4_1_1:  2 x_4_1_1 - d_4_1_1 <= -0
c6#2_4_1_1:  2 x_4_1_1 + d_4_1_1 <= 4
c6#1_4_1_2:  2 x_4_1_2 - d_4_1_2 <= -0
c6#2_4_1_2:  2 x_4_1_2 + d_4_1_2 <= 4
c6#1_4_1_3:  2 x_4_1_3 - d_4_1_3 <= -0
c6#2_4_1_3:  2 x_4_1_3 + d_4_1_3 <= 4
c2_4_2_1:  - x_3_2_1 - x_4_1_1 + d_4_2_1 - x_4_3_1 - x_5_2_1 = -0
c2_4_2_2:  - x_3_2_2 - x_4_1_2 + d_4_2_2 - x_4_3_2 - x_5_2_2 = -0
c2_4_2_3:  - x_3_2_3 - x_4_1_3 + d_4_2_3 - x_4_3_3 - x_5_2_3 = -0
c3_4_2_3:  x_4_2_1 + x_4_2_2 + x_4_2_3 <= 1
c6#1_4_2_1:  2 x_4_2_1 - d_4_2_1 <= -0
c6#2_4_2_1:  2 x_4_2_1 + d_4_2_1 <= 4
c6#1_4_2_2:  2 x_4_2_2 - d_4_2_2 <= -0
c6#2_4_2_2:  2 x_4_2_2 + d_4_2_2 <= 4
c6#1_4_2_3:  2 x_4_2_3 - d_4_2_3 <= -0
c6#2_4_2_3:  2 x_4_2_3 + d_4_2_3 <= 4
c2_4_3_1:  - x_3_3_1 - x_4_2_1 + d_4_3_1 - x_4_4_1 - x_5_3_1 = -0
c2_4_3_2:  - x_3_3_2 - x_4_2_2 + d_4_3_2 - x_4_4_2 - x_5_3_2 = -0
c2_4_3_3:  - x_3_3_3 - x_4_2_3 + d_4_3_3 - x_4_4_3 - x_5_3_3 = -0
c3_4_3_3:  x_4_3_1 + x_4_3_2 + x_4_3_3 <= 1
c6#1_4_3_1:  2 x_4_3_1 - d_4_3_1 <= -0
c6#2_4_3_1:  2 x_4_3_1 + d_4_3_1 <= 4
c6#1_4_3_2:  2 x_4_3_2 - d_4_3_2 <= -0
c6#2_4_3_2:  2 x_4_3_2 + d_4_3_2 <= 4
c6#1_4_3_3:  2 x_4_3_3 - d_4_3_3 <= -0
c6#2_4_3_3:  2 x_4_3_3 + d_4_3_3 <= 4
c2_4_4_1:  - x_3_4_1 - x_4_3_1 + d_4_4_1 - x_4_5_1 - x_5_4_1 = -0
c2_4_4_2:  - x_3_4_2 - x_4_3_2 + d_4_4_2 - x_4_5_2 - x_5_4_2 = -0
c2_4_4_3:  - x_3_4_3 - x_4_3_3 + d_4_4_3 - x_4_5_3 - x_5_4_3 = -0
c3_4_4_3:  x_4_4_1 + x_4_4_2 + x_4_4_3 <= 1
c6#1_4_4_1:  2 x_4_4_1 - d_4_4_1 <= -0
c6#2_4_4_1:  2 x_4_4_1 + d_4_4_1 <= 4
c6#1_4_4_2:  2 x_4_4_2 - d_4_4_2 <= -0
c6#2_4_4_2:  2 x_4_4_2 + d_4_4_2 <= 4
c6#1_4_4_3:  2 x_4_4_3 - d_4_4_3 <= -0
c6#2_4_4_3:  2 x_4_4_3 + d_4_4_3 <= 4
c2_4_5_1:  - x_3_5_1 - x_4_4_1 + d_4_5_1 - x_4_6_1 - x_5_5_1 = -0
c2_4_5_2:  - x_3_5_2 - x_4_4_2 + d_4_5_2 - x_4_6_2 - x_5_5_2 = -0
c2_4_5_3:  - x_3_5_3 - x_4_4_3 + d_4_5_3 - x_4_6_3 - x_5_5_3 = -0
c3_4_5_3:  x_4_5_1 + x_4_5_2 + x_4_5_3 <= 1
c6#1_4_5_1:  2 x_4_5_1 - d_4_5_1 <= -0
c6#2_4_5_1:  2 x_4_5_1 + d_4_5_1 <= 4
c6#1_4_5_2:  2 x_4_5_2 - d_4_5_2 <= -0
c6#2_4_5_2:  2 x_4_5_2 + d_4_5_2 <= 4
c6#1_4_5_3:  2 x_4_5_3 - d_4_5_3 <= -0
c6#2_4_5_3:  2 x_4_5_3 + d_4_5_3 <= 4
c1_4_6_1:  x_4_6_1 = 0
c1_4_6_2:  x_4_6_2 = 0
c1_4_6_3:  x_4_6_3 = 0
c1_5_0_1:  x_5_0_1 = 0
c1_5_0_2:  x_5_0_2 = 0
c1_5_0_3:  x_5_0_3 = 0
c2_5_1_1:  - x_4_1_1 - x_5_0_1 + d_5_1_1 - x_5_2_1 - x_6_1_1 = -0
c2_5_1_2:  - x_4_1_2 - x_5_0_2 + d_5_1_2 - x_5_2_2 - x_6_1_2 = -0
c2_5_1_3:  - x_4_1_3 - x_5_0_3 + d_5_1_3 - x_5_2_3 - x_6_1_3 = -0
c3_5_1_3:  x_5_1_1 + x_5_1_2 + x_5_1_3 <= 1
c6#1_5_1_1:  2 x_5_1_1 - d_5_1_1 <= -0
c6#2_5_1_1:  2 x_5_1_1 + d_5_1_1 <= 4
c6#1_5_1_2:  2 x_5_1_2 - d_5_1_2 <= -0
c6#2_5_1_2:  2 x_5_1_2 + d_5_1_2 <= 4
c6#1_5_1_3:  2 x_5_1_3 - d_5_1_3 <= -0
c6#2_5_1_3:  2 x_5_1_3 + d_5_1_3 <= 4
c2_5_2_1:  - x_4_2_1 - x_5_1_1 + d_5_2_1 - x_5_3_1 - x_6_2_1 = -0
c2_5_2_2:  - x_4_2_2 - x_5_1_2 + d_5_2_2 - x_5_3_2 - x_6_2_2 = -0
c2_5_2_3:  - x_4_2_3 - x_5_1_3 + d_5_2_3 - x_5_3_3 - x_6_2_3 = -0
c3_5_2_3:  x_5_2_1 + x_5_2_2 + x_5_2_3 <= 1
c6#1_5_2_1:  2 x_5_2_1 - d_5_2_1 <= -0
c6#2_5_2_1:  2 x_5_2_1 + d_5_2_1 <= 4
c6#1_5_2_2:  2 x_5_2_2 - d_5_2_2 <= -0
c6#2_5_2_2:  2 x_5_2_2 + d_5_2_2 <= 4
c6#1_5_2_3:  2 x_5_2_3 - d_5_2_3 <= -0
c6#2_5_2_3:  2 x_5_2_3 + d_5_2_3 <= 4
c2_5_3_1:  - x_4_3_1 - x_5_2_1 + d_5_3_1 - x_5_4_1 - x_6_3_1 = -0
c2_5_3_2:  - x_4_3_2 - x_5_2_2 + d_5_3_2 - x_5_4_2 - x_6_3_2 = -0
c2_5_3_3:  - x_4_3_3 - x_5_2_3 + d_5_3_3 - x_5_4_3 - x_6_3_3 = -0
c3_5_3_3:  x_5_3_1 + x_5_3_2 + x_5_3_3 <= 1
c4_5_3_1:  x_5_3_1 = 1
c5_5_3_1:  d_5_3_1 = 1
c2_5_4_1:  - x_4_4_1 - x_5_3_1 + d_5_4_1 - x_5_5_1 - x_6_4_1 = -0
c2_5_4_2:  - x_4_4_2 - x_5_3_2 + d_5_4_2 - x_5_5_2 - x_6_4_2 = -0
c2_5_4_3:  - x_4_4_3 - x_5_3_3 + d_5_4_3 - x_5_5_3 - x_6_4_3 = -0
c3_5_4_3:  x_5_4_1 + x_5_4_2 + x_5_4_3 <= 1
c6#1_5_4_1:  2 x_5_4_1 - d_5_4_1 <= -0
c6#2_5_4_1:  2 x_5_4_1 + d_5_4_1 <= 4
c6#1_5_4_2:  2 x_5_4_2 - d_5_4_2 <= -0
c6#2_5_4_2:  2 x_5_4_2 + d_5_4_2 <= 4
c6#1_5_4_3:  2 x_5_4_3 - d_5_4_3 <= -0
c6#2_5_4_3:  2 x_5_4_3 + d_5_4_3 <= 4
c2_5_5_1:  - x_4_5_1 - x_5_4_1 + d_5_5_1 - x_5_6_1 - x_6_5_1 = -0
c2_5_5_2:  - x_4_5_2 - x_5_4_2 + d_5_5_2 - x_5_6_2 - x_6_5_2 = -0
c2_5_5_3:  - x_4_5_3 - x_5_4_3 + d_5_5_3 - x_5_6_3 - x_6_5_3 = -0
c3_5_5_3:  x_5_5_1 + x_5_5_2 + x_5_5_3 <= 1
c6#1_5_5_1:  2 x_5_5_1 - d_5_5_1 <= -0
c6#2_5_5_1:  2 x_5_5_1 + d_5_5_1 <= 4
c6#1_5_5_2:  2 x_5_5_2 - d_5_5_2 <= -0
c6#2_5_5_2:  2 x_5_5_2 + d_5_5_2 <= 4
c6#1_5_5_3:  2 x_5_5_3 - d_5_5_3 <= -0
c6#2_5_5_3:  2 x_5_5_3 + d_5_5_3 <= 4
c1_5_6_1:  x_5_6_1 = 0
c1_5_6_2:  x_5_6_2 = 0
c1_5_6_3:  x_5_6_3 = 0
c1_6_0_1:  x_6_0_1 = 0
c1_6_0_2:  x_6_0_2 = 0
c1_6_0_3:  x_6_0_3 = 0
c2_6_1_1:  - x_5_1_1 - x_6_0_1 + d_6_1_1 - x_6_2_1 - x_7_1_1 = -0
c2_6_1_2:  - x_5_1_2 - x_6_0_2 + d_6_1_2 - x_6_2_2 - x_7_1_2 = -0
c2_6_1_3:  - x_5_1_3 - x_6_0_3 + d_6_1_3 - x_6_2_3 - x_7_1_3 = -0
c3_6_1_3:  x_6_1_1 + x_6_1_2 + x_6_1_3 <= 1
c6#1_6_1_1:  2 x_6_1_1 - d_6_1_1 <= -0
c6#2_6_1_1:  2 x_6_1_1 + d_6_1_1 <= 4
c6#1_6_1_2:  2 x_6_1_2 - d_6_1_2 <= -0
c6#2_6_1_2:  2 x_6_1_2 + d_6_1_2 <= 4
c6#1_6_1_3:  2 x_6_1_3 - d_6_1_3 <= -0
c6#2_6_1_3:  2 x_6_1_3 + d_6_1_3 <= 4
c2_6_2_1:  - x_5_2_1 - x_6_1_1 + d_6_2_1 - x_6_3_1 - x_7_2_1 = -0
c2_6_2_2:  - x_5_2_2 - x_6_1_2 + d_6_2_2 - x_6_3_2 - x_7_2_2 = -0
c2_6_2_3:  - x_5_2_3 - x_6_1_3 + d_6_2_3 - x_6_3_3 - x_7_2_3 = -0
c3_6_2_3:  x_6_2_1 + x_6_2_2 + x_6_2_3 <= 1
c6#1_6_2_1:  2 x_6_2_1 - d_6_2_1 <= -0
c6#2_6_2_1:  2 x_6_2_1 + d_6_2_1 <= 4
c6#1_6_2_2:  2 x_6_2_2 - d_6_2_2 <= -0
c6#2_6_2_2:  2 x_6_2_2 + d_6_2_2 <= 4
c6#1_6_2_3:  2 x_6_2_3 - d_6_2_3 <= -0
c6#2_6_2_3:  2 x_6_2_3 + d_6_2_3 <= 4
c2_6_3_1:  - x_5_3_1 - x_6_2_1 + d_6_3_1 - x_6_4_1 - x_7_3_1 = -0
c2_6_3_2:  - x_5_3_2 - x_6_2_2 + d_6_3_2 - x_6_4_2 - x_7_3_2 = -0
c2_6_3_3:  - x_5_3_3 - x_6_2_3 + d_6_3_3 - x_6_4_3 - x_7_3_3 = -0
c3_6_3_3:  x_6_3_1 + x_6_3_2 + x_6_3_3 <= 1
c6#1_6_3_1:  2 x_6_3_1 - d_6_3_1 <= -0
c6#2_6_3_1:  2 x_6_3_1 + d_6_3_1 <= 4
c6#1_6_3_2:  2 x_6_3_2 - d_6_3_2 <= -0
c6#2_6_3_2:  2 x_6_3_2 + d_6_3_2 <= 4
c6#1_6_3_3:  2 x_6_3_3 - d_6_3_3 <= -0
c6#2_6_3_3:  2 x_6_3_3 + d_6_3_3 <= 4
c2_6_4_1:  - x_5_4_1 - x_6_3_1 + d_6_4_1 - x_6_5_1 - x_7_4_1 = -0
c2_6_4_2:  - x_5_4_2 - x_6_3_2 + d_6_4_2 - x_6_5_2 - x_7_4_2 = -0
c2_6_4_3:  - x_5_4_3 - x_6_3_3 + d_6_4_3 - x_6_5_3 - x_7_4_3 = -0
c3_6_4_3:  x_6_4_1 + x_6_4_2 + x_6_4_3 <= 1
c6#1_6_4_1:  2 x_6_4_1 - d_6_4_1 <= -0
c6#2_6_4_1:  2 x_6_4_1 + d_6_4_1 <= 4
c6#1_6_4_2:  2 x_6_4_2 - d_6_4_2 <= -0
c6#2_6_4_2:  2 x_6_4_2 + d_6_4_2 <= 4
c6#1_6_4_3:  2 x_6_4_3 - d_6_4_3 <= -0
c6#2_6_4_3:  2 x_6_4_3 + d_6_4_3 <= 4
c2_6_5_1:  - x_5_5_1 - x_6_4_1 + d_6_5_1 - x_6_6_1 - x_7_5_1 = -0
c2_6_5_2:  - x_5_5_2 - x_6_4_2 + d_6_5_2 - x_6_6_2 - x_7_5_2 = -0
c2_6_5_3:  - x_5_5_3 - x_6_4_3 + d_6_5_3 - x_6_6_3 - x_7_5_3 = -0
c3_6_5_3:  x_6_5_1 + x_6_5_2 + x_6_5_3 <= 1
c4_6_5_2:  x_6_5_2 = 1
c5_6_5_2:  d_6_5_2 = 1
c1_6_6_1:  x_6_6_1 = 0
c1_6_6_2:  x_6_6_2 = 0
c1_6_6_3:  x_6_6_3 = 0
c1_7_0_1:  x_7_0_1 = 0
c1_7_0_2:  x_7_0_2 = 0
c1_7_0_3:  x_7_0_3 = 0
c2_7_1_1:  - x_6_1_1 - x_7_0_1 + d_7_1_1 - x_7_2_1 - x_8_1_1 = -0
c2_7_1_2:  - x_6_1_2 - x_7_0_2 + d_7_1_2 - x_7_2_2 - x_8_1_2 = -0
c2_7_1_3:  - x_6_1_3 - x_7_0_3 + d_7_1_3 - x_7_2_3 - x_8_1_3 = -0
c3_7_1_3:  x_7_1_1 + x_7_1_2 + x_7_1_3 <= 1
c6#1_7_1_1:  2 x_7_1_1 - d_7_1_1 <= -0
c6#2_7_1_1:  2 x_7_1_1 + d_7_1_1 <= 4
c6#1_7_1_2:  2 x_7_1_2 - d_7_1_2 <= -0
c6#2_7_1_2:  2 x_7_1_2 + d_7_1_2 <= 4
c6#1_7_1_3:  2 x_7_1_3 - d_7_1_3 <= -0
c6#2_7_1_3:  2 x_7_1_3 + d_7_1_3 <= 4
c2_7_2_1:  - x_6_2_1 - x_7_1_1 + d_7_2_1 - x_7_3_1 - x_8_2_1 = -0
c2_7_2_2:  - x_6_2_2 - x_7_1_2 + d_7_2_2 - x_7_3_2 - x_8_2_2 = -0
c2_7_2_3:  - x_6_2_3 - x_7_1_3 + d_7_2_3 - x_7_3_3 - x_8_2_3 = -0
c3_7_2_3:  x_7_2_1 + x_7_2_2 + x_7_2_3 <= 1
c6#1_7_2_1:  2 x_7_2_1 - d_7_2_1 <= -0
c6#2_7_2_1:  2 x_7_2_1 + d_7_2_1 <= 4
c6#1_7_2_2:  2 x_7_2_2 - d_7_2_2 <= -0
c6#2_7_2_2:  2 x_7_2_2 + d_7_2_2 <= 4
c6#1_7_2_3:  2 x_7_2_3 - d_7_2_3 <= -0
c6#2_7_2_3:  2 x_7_2_3 + d_7_2_3 <= 4
c2_7_3_1:  - x_6_3_1 - x_7_2_1 + d_7_3_1 - x_7_4_1 - x_8_3_1 = -0
c2_7_3_2:  - x_6_3_2 - x_7_2_2 + d_7_3_2 - x_7_4_2 - x_8_3_2 = -0
c2_7_3_3:  - x_6_3_3 - x_7_2_3 + d_7_3_3 - x_7_4_3 - x_8_3_3 = -0
c3_7_3_3:  x_7_3_1 + x_7_3_2 + x_7_3_3 <= 1
c6#1_7_3_1:  2 x_7_3_1 - d_7_3_1 <= -0
c6#2_7_3_1:  2 x_7_3_1 + d_7_3_1 <= 4
c6#1_7_3_2:  2 x_7_3_2 - d_7_3_2 <= -0
c6#2_7_3_2:  2 x_7_3_2 + d_7_3_2 <= 4
c6#1_7_3_3:  2 x_7_3_3 - d_7_3_3 <= -0
c6#2_7_3_3:  2 x_7_3_3 + d_7_3_3 <= 4
c2_7_4_1:  - x_6_4_1 - x_7_3_1 + d_7_4_1 - x_7_5_1 - x_8_4_1 = -0
c2_7_4_2:  - x_6_4_2 - x_7_3_2 + d_7_4_2 - x_7_5_2 - x_8_4_2 = -0
c2_7_4_3:  - x_6_4_3 - x_7_3_3 + d_7_4_3 - x_7_5_3 - x_8_4_3 = -0
c3_7_4_3:  x_7_4_1 + x_7_4_2 + x_7_4_3 <= 1
c6#1_7_4_1:  2 x_7_4_1 - d_7_4_1 <= -0
c6#2_7_4_1:  2 x_7_4_1 + d_7_4_1 <= 4
c6#1_7_4_2:  2 x_7_4_2 - d_7_4_2 <= -0
c6#2_7_4_2:  2 x_7_4_2 + d_7_4_2 <= 4
c6#1_7_4_3:  2 x_7_4_3 - d_7_4_3 <= -0
c6#2_7_4_3:  2 x_7_4_3 + d_7_4_3 <= 4
c2_7_5_1:  - x_6_5_1 - x_7_4_1 + d_7_5_1 - x_7_6_1 - x_8_5_1 = -0
c2_7_5_2:  - x_6_5_2 - x_7_4_2 + d_7_5_2 - x_7_6_2 - x_8_5_2 = -0
c2_7_5_3:  - x_6_5_3 - x_7_4_3 + d_7_5_3 - x_7_6_3 - x_8_5_3 = -0
c3_7_5_3:  x_7_5_1 + x_7_5_2 + x_7_5_3 <= 1
c4_7_5_3:  x_7_5_3 = 1
c5_7_5_3:  d_7_5_3 = 1
c1_7_6_1:  x_7_6_1 = 0
c1_7_6_2:  x_7_6_2 = 0
c1_7_6_3:  x_7_6_3 = 0
c1_8_0_1:  x_8_0_1 = 0
c1_8_0_2:  x_8_0_2 = 0
c1_8_0_3:  x_8_0_3 = 0
c1_8_1_1:  x_8_1_1 = 0
c1_8_1_2:  x_8_1_2 = 0
c1_8_1_3:  x_8_1_3 = 0
c1_8_2_1:  x_8_2_1 = 0
c1_8_2_2:  x_8_2_2 = 0
c1_8_2_3:  x_8_2_3 = 0
c1_8_3_1:  x_8_3_1 = 0
c1_8_3_2:  x_8_3_2 = 0
c1_8_3_3:  x_8_3_3 = 0
c1_8_4_1:  x_8_4_1 = 0
c1_8_4_2:  x_8_4_2 = 0
c1_8_4_3:  x_8_4_3 = 0
c1_8_5_1:  x_8_5_1 = 0
c1_8_5_2:  x_8_5_2 = 0
c1_8_5_3:  x_8_5_3 = 0
c1_8_6_1:  x_8_6_1 = 0
c1_8_6_2:  x_8_6_2 = 0
c1_8_6_3:  x_8_6_3 = 0
Bounds
 0 <= x_0_0_1 <= 1
 0 <= x_0_0_2 <= 1
 0 <= x_0_0_3 <= 1
 0 <= x_0_1_1 <= 1
 0 <= x_0_1_2 <= 1
 0 <= x_0_1_3 <= 1
 0 <= x_0_2_1 <= 1
 0 <= x_0_2_2 <= 1
 0 <= x_0_2_3 <= 1
 0 <= x_0_3_1 <= 1
 0 <= x_0_3_2 <= 1
 0 <= x_0_3_3 <= 1
 0 <= x_0_4_1 <= 1
 0 <= x_0_4_2 <= 1
 0 <= x_0_4_3 <= 1
 0 <= x_0_5_1 <= 1
 0 <= x_0_5_2 <= 1
 0 <= x_0_5_3 <= 1
 0 <= x_0_6_1 <= 1
 0 <= x_0_6_2 <= 1
 0 <= x_0_6_3 <= 1
 0 <= x_1_0_1 <= 1
 0 <= x_1_0_2 <= 1
 0 <= x_1_0_3 <= 1
 0 <= x_1_1_1 <= 1
 0 <= x_1_1_2 <= 1
 0 <= x_1_1_3 <= 1
 0 <= x_1_2_1 <= 1
 0 <= x_1_2_2 <= 1
 0 <= x_1_2_3 <= 1
 0 <= x_1_3_1 <= 1
 0 <= x_1_3_2 <= 1
 0 <= x_1_3_3 <= 1
 0 <= x_1_4_1 <= 1
 0 <= x_1_4_2 <= 1
 0 <= x_1_4_3 <= 1
 0 <= x_1_5_1 <= 1
 0 <= x_1_5_2 <= 1
 0 <= x_1_5_3 <= 1
 0 <= x_1_6_1 <= 1
 0 <= x_1_6_2 <= 1
 0 <= x_1_6_3 <= 1
 0 <= x_2_0_1 <= 1
 0 <= x_2_0_2 <= 1
 0 <= x_2_0_3 <= 1
 0 <= x_2_1_1 <= 1
 0 <= x_2_1_2 <= 1
 0 <= x_2_1_3 <= 1
 0 <= x_2_2_1 <= 1
 0 <= x_2_2_2 <= 1
 0 <= x_2_2_3 <= 1
 0 <= x_2_3_1 <= 1
 0 <= x_2_3_2 <= 1
 0 <= x_2_3_3 <= 1
 0 <= x_2_4_1 <= 1
 0 <= x_2_4_2 <= 1
 0 <= x_2_4_3 <= 1
 0 <= x_2_5_1 <= 1
 0 <= x_2_5_2 <= 1
 0 <= x_2_5_3 <= 1
 0 <= x_2_6_1 <= 1
 0 <= x_2_6_2 <= 1
 0 <= x_2_6_3 <= 1
 0 <= x_3_0_1 <= 1
 0 <= x_3_0_2 <= 1
 0 <= x_3_0_3 <= 1
 0 <= x_3_1_1 <= 1
 0 <= x_3_1_2 <= 1
 0 <= x_3_1_3 <= 1
 0 <= x_3_2_1 <= 1
 0 <= x_3_2_2 <= 1
 0 <= x_3_2_3 <= 1
 0 <= x_3_3_1 <= 1
 0 <= x_3_3_2 <= 1
 0 <= x_3_3_3 <= 1
 0 <= x_3_4_1 <= 1
 0 <= x_3_4_2 <= 1
 0 <= x_3_4_3 <= 1
 0 <= x_3_5_1 <= 1
 0 <= x_3_5_2 <= 1
 0 <= x_3_5_3 <= 1
 0 <= x_3_6_1 <= 1
 0 <= x_3_6_2 <= 1
 0 <= x_3_6_3 <= 1
 0 <= x_4_0_1 <= 1
 0 <= x_4_0_2 <= 1
 0 <= x_4_0_3 <= 1
 0 <= x_4_1_1 <= 1
 0 <= x_4_1_2 <= 1
 0 <= x_4_1_3 <= 1
 0 <= x_4_2_1 <= 1
 0 <= x_4_2_2 <= 1
 0 <= x_4_2_3 <= 1
 0 <= x_4_3_1 <= 1
 0 <= x_4_3_2 <= 1
 0 <= x_4_3_3 <= 1
 0 <= x_4_4_1 <= 1
 0 <= x_4_4_2 <= 1
 0 <= x_4_4_3 <= 1
 0 <= x_4_5_1 <= 1
 0 <= x_4_5_2 <= 1
 0 <= x_4_5_3 <= 1
 0 <= x_4_6_1 <= 1
 0 <= x_4_6_2 <= 1
 0 <= x_4_6_3 <= 1
 0 <= x_5_0_1 <= 1
 0 <= x_5_0_2 <= 1
 0 <= x_5_0_3 <= 1
 0 <= x_5_1_1 <= 1
 0 <= x_5_1_2 <= 1
 0 <= x_5_1_3 <= 1
 0 <= x_5_2_1 <= 1
 0 <= x_5_2_2 <= 1
 0 <= x_5_2_3 <= 1
 0 <= x_5_3_1 <= 1
 0 <= x_5_3_2 <= 1
 0 <= x_5_3_3 <= 1
 0 <= x_5_4_1 <= 1
 0 <= x_5_4_2 <= 1
 0 <= x_5_4_3 <= 1
 0 <= x_5_5_1 <= 1
 0 <= x_5_5_2 <= 1
 0 <= x_5_5_3 <= 1
 0 <= x_5_6_1 <= 1
 0 <= x_5_6_2 <= 1
 0 <= x_5_6_3 <= 1
 0 <= x_6_0_1 <= 1
 0 <= x_6_0_2 <= 1
 0 <= x_6_0_3 <= 1
 0 <= x_6_1_1 <= 1
 0 <= x_6_1_2 <= 1
 0 <= x_6_1_3 <= 1
 0 <= x_6_2_1 <= 1
 0 <= x_6_2_2 <= 1
 0 <= x_6_2_3 <= 1
 0 <= x_6_3_1 <= 1
 0 <= x_6_3_2 <= 1
 0 <= x_6_3_3 <= 1
 0 <= x_6_4_1 <= 1
 0 <= x_6_4_2 <= 1
 0 <= x_6_4_3 <= 1
 0 <= x_6_5_1 <= 1
 0 <= x_6_5_2 <= 1
 0 <= x_6_5_3 <= 1
 0 <= x_6_6_1 <= 1
 0 <= x_6_6_2 <= 1
 0 <= x_6_6_3 <= 1
 0 <= x_7_0_1 <= 1
 0 <= x_7_0_2 <= 1
 0 <= x_7_0_3 <= 1
 0 <= x_7_1_1 <= 1
 0 <= x_7_1_2 <= 1
 0 <= x_7_1_3 <= 1
 0 <= x_7_2_1 <= 1
 0 <= x_7_2_2 <= 1
 0 <= x_7_2_3 <= 1
 0 <= x_7_3_1 <= 1
 0 <= x_7_3_2 <= 1
 0 <= x_7_3_3 <= 1
 0 <= x_7_4_1 <= 1
 0 <= x_7_4_2 <= 1
 0 <= x_7_4_3 <= 1
 0 <= x_7_5_1 <= 1
 0 <= x_7_5_2 <= 1
 0 <= x_7_5_3 <= 1
 0 <= x_7_6_1 <= 1
 0 <= x_7_6_2 <= 1
 0 <= x_7_6_3 <= 1
 0 <= x_8_0_1 <= 1
 0 <= x_8_0_2 <= 1
 0 <= x_8_0_3 <= 1
 0 <= x_8_1_1 <= 1
 0 <= x_8_1_2 <= 1
 0 <= x_8_1_3 <= 1
 0 <= x_8_2_1 <= 1
 0 <= x_8_2_2 <= 1
 0 <= x_8_2_3 <= 1
 0 <= x_8_3_1 <= 1
 0 <= x_8_3_2 <= 1
 0 <= x_8_3_3 <= 1
 0 <= x_8_4_1 <= 1
 0 <= x_8_4_2 <= 1
 0 <= x_8_4_3 <= 1
 0 <= x_8_5_1 <= 1
 0 <= x_8_5_2 <= 1
 0 <= x_8_5_3 <= 1
 0 <= x_8_6_1 <= 1
 0 <= x_8_6_2 <= 1
 0 <= x_8_6_3 <= 1
Integers
x_0_0_1 d_0_0_1 x_0_0_2 d_0_0_2 x_0_0_3 d_0_0_3 x_0_1_1 d_0_1_1 x_0_1_2 d_0_1_2 
x_0_1_3 d_0_1_3 x_0_2_1 d_0_2_1 x_0_2_2 d_0_2_2 x_0_2_3 d_0_2_3 x_0_3_1 d_0_3_1 
x_0_3_2 d_0_3_2 x_0_3_3 d_0_3_3 x_0_4_1 d_0_4_1 x_0_4_2 d_0_4_2 x_0_4_3 d_0_4_3 
x_0_5_1 d_0_5_1 x_0_5_2 d_0_5_2 x_0_5_3 d_0_5_3 x_0_6_1 d_0_6_1 x_0_6_2 d_0_6_2 
x_0_6_3 d_0_6_3 x_1_0_1 d_1_0_1 x_1_0_2 d_1_0_2 x_1_0_3 d_1_0_3 x_1_1_1 d_1_1_1 
x_1_1_2 d_1_1_2 x_1_1_3 d_1_1_3 x_1_2_1 d_1_2_1 x_1_2_2 d_1_2_2 x_1_2_3 d_1_2_3 
x_1_3_1 d_1_3_1 x_1_3_2 d_1_3_2 x_1_3_3 d_1_3_3 x_1_4_1 d_1_4_1 x_1_4_2 d_1_4_2 
x_1_4_3 d_1_4_3 x_1_5_1 d_1_5_1 x_1_5_2 d_1_5_2 x_1_5_3 d_1_5_3 x_1_6_1 d_1_6_1 
x_1_6_2 d_1_6_2 x_1_6_3 d_1_6_3 x_2_0_1 d_2_0_1 x_2_0_2 d_2_0_2 x_2_0_3 d_2_0_3 
x_2_1_1 d_2_1_1 x_2_1_2 d_2_1_2 x_2_1_3 d_2_1_3 x_2_2_1 d_2_2_1 x_2_2_2 d_2_2_2 
x_2_2_3 d_2_2_3 x_2_3_1 d_2_3_1 x_2_3_2 d_2_3_2 x_2_3_3 d_2_3_3 x_2_4_1 d_2_4_1 
x_2_4_2 d_2_4_2 x_2_4_3 d_2_4_3 x_2_5_1 d_2_5_1 x_2_5_2 d_2_5_2 x_2_5_3 d_2_5_3 
x_2_6_1 d_2_6_1 x_2_6_2 d_2_6_2 x_2_6_3 d_2_6_3 x_3_0_1 d_3_0_1 x_3_0_2 d_3_0_2 
x_3_0_3 d_3_0_3 x_3_1_1 d_3_1_1 x_3_1_2 d_3_1_2 x_3_1_3 d_3_1_3 x_3_2_1 d_3_2_1 
x_3_2_2 d_3_2_2 x_3_2_3 d_3_2_3 x_3_3_1 d_3_3_1 x_3_3_2 d_3_3_2 x_3_3_3 d_3_3_3 
x_3_4_1 d_3_4_1 x_3_4_2 d_3_4_2 x_3_4_3 d_3_4_3 x_3_5_1 d_3_5_1 x_3_5_2 d_3_5_2 
x_3_5_3 d_3_5_3 x_3_6_1 d_3_6_1 x_3_6_2 d_3_6_2 x_3_6_3 d_3_6_3 x_4_0_1 d_4_0_1 
x_4_0_2 d_4_0_2 x_4_0_3 d_4_0_3 x_4_1_1 d_4_1_1 x_4_1_2 d_4_1_2 x_4_1_3 d_4_1_3 
x_4_2_1 d_4_2_1 x_4_2_2 d_4_2_2 x_4_2_3 d_4_2_3 x_4_3_1 d_4_3_1 x_4_3_2 d_4_3_2 
x_4_3_3 d_4_3_3 x_4_4_1 d_4_4_1 x_4_4_2 d_4_4_2 x_4_4_3 d_4_4_3 x_4_5_1 d_4_5_1 
x_4_5_2 d_4_5_2 x_4_5_3 d_4_5_3 x_4_6_1 d_4_6_1 x_4_6_2 d_4_6_2 x_4_6_3 d_4_6_3 
x_5_0_1 d_5_0_1 x_5_0_2 d_5_0_2 x_5_0_3 d_5_0_3 x_5_1_1 d_5_1_1 x_5_1_2 d_5_1_2 
x_5_1_3 d_5_1_3 x_5_2_1 d_5_2_1 x_5_2_2 d_5_2_2 x_5_2_3 d_5_2_3 x_5_3_1 d_5_3_1 
x_5_3_2 d_5_3_2 x_5_3_3 d_5_3_3 x_5_4_1 d_5_4_1 x_5_4_2 d_5_4_2 x_5_4_3 d_5_4_3 
x_5_5_1 d_5_5_1 x_5_5_2 d_5_5_2 x_5_5_3 d_5_5_3 x_5_6_1 d_5_6_1 x_5_6_2 d_5_6_2 
x_5_6_3 d_5_6_3 x_6_0_1 d_6_0_1 x_6_0_2 d_6_0_2 x_6_0_3 d_6_0_3 x_6_1_1 d_6_1_1 
x_6_1_2 d_6_1_2 x_6_1_3 d_6_1_3 x_6_2_1 d_6_2_1 x_6_2_2 d_6_2_2 x_6_2_3 d_6_2_3 
x_6_3_1 d_6_3_1 x_6_3_2 d_6_3_2 x_6_3_3 d_6_3_3 x_6_4_1 d_6_4_1 x_6_4_2 d_6_4_2 
x_6_4_3 d_6_4_3 x_6_5_1 d_6_5_1 x_6_5_2 d_6_5_2 x_6_5_3 d_6_5_3 x_6_6_1 d_6_6_1 
x_6_6_2 d_6_6_2 x_6_6_3 d_6_6_3 x_7_0_1 d_7_0_1 x_7_0_2 d_7_0_2 x_7_0_3 d_7_0_3 
x_7_1_1 d_7_1_1 x_7_1_2 d_7_1_2 x_7_1_3 d_7_1_3 x_7_2_1 d_7_2_1 x_7_2_2 d_7_2_2 
x_7_2_3 d_7_2_3 x_7_3_1 d_7_3_1 x_7_3_2 d_7_3_2 x_7_3_3 d_7_3_3 x_7_4_1 d_7_4_1 
x_7_4_2 d_7_4_2 x_7_4_3 d_7_4_3 x_7_5_1 d_7_5_1 x_7_5_2 d_7_5_2 x_7_5_3 d_7_5_3 
x_7_6_1 d_7_6_1 x_7_6_2 d_7_6_2 x_7_6_3 d_7_6_3 x_8_0_1 d_8_0_1 x_8_0_2 d_8_0_2 
x_8_0_3 d_8_0_3 x_8_1_1 d_8_1_1 x_8_1_2 d_8_1_2 x_8_1_3 d_8_1_3 x_8_2_1 d_8_2_1 
x_8_2_2 d_8_2_2 x_8_2_3 d_8_2_3 x_8_3_1 d_8_3_1 x_8_3_2 d_8_3_2 x_8_3_3 d_8_3_3 
x_8_4_1 d_8_4_1 x_8_4_2 d_8_4_2 x_8_4_3 d_8_4_3 x_8_5_1 d_8_5_1 x_8_5_2 d_8_5_2 
x_8_5_3 d_8_5_3 x_8_6_1 d_8_6_1 x_8_6_2 d_8_6_2 x_8_6_3 d_8_6_3 
End
